graph_generation/data/cp/rcsp/hexagonal_lattice_N_14_weights-one_windows-tight.dzn
N = 448;
M = 1084;
Edge_Start = [1, 2, 3, 3, 4, 4, 5, 5, 5, 6, 6, 7, 7, 8, 9, 9, 10, 10, 11, 11, 12, 12, 13, 13, 14, 14, 15, 15, 15, 16, 16, 17, 17, 17, 18, 18, 19, 19, 19, 20, 20, 21, 21, 22, 22, 23, 23, 23, 24, 24, 25, 25, 25, 26, 26, 27, 27, 27, 28, 28, 29, 29, 30, 30, 31, 31, 31, 32, 32, 33, 33, 33, 34, 34, 34, 35, 35, 35, 36, 36, 36, 37, 37, 37, 38, 38, 39, 39, 39, 40, 40, 41, 41, 41, 42, 42, 43, 43, 43, 44, 44, 44, 45, 45, 45, 46, 46, 46, 47, 47, 47, 48, 48, 48, 49, 49, 50, 50, 51, 51, 52, 52, 52, 53, 53, 54, 54, 54, 55, 55, 56, 56, 56, 57, 57, 57, 58, 58, 58, 59, 59, 60, 60, 61, 61, 61, 62, 62, 62, 63, 63, 63, 64, 64, 64, 65, 65, 65, 66, 66, 66, 67, 67, 68, 68, 69, 69, 69, 70, 70, 71, 71, 72, 72, 72, 73, 73, 73, 74, 74, 75, 75, 76, 76, 77, 77, 77, 78, 78, 78, 79, 79, 80, 80, 81, 81, 82, 82, 82, 83, 83, 84, 84, 84, 85, 85, 86, 86, 87, 87, 88, 88, 89, 90, 90, 91, 91, 92, 92, 93, 93, 94, 94, 95, 95, 95, 96, 96, 96, 97, 97, 97, 98, 98, 98, 99, 99, 99, 100, 100, 100, 101, 101, 102, 102, 102, 103, 103, 103, 104, 104, 105, 105, 105, 106, 106, 106, 107, 107, 107, 108, 108, 108, 109, 109, 109, 110, 110, 111, 111, 112, 112, 113, 113, 114, 114, 114, 115, 115, 115, 116, 116, 116, 117, 117, 118, 118, 119, 119, 120, 120, 121, 121, 121, 122, 122, 123, 123, 124, 124, 125, 125, 125, 126, 126, 127, 127, 127, 128, 128, 128, 129, 129, 129, 130, 130, 130, 131, 131, 132, 132, 132, 133, 133, 133, 134, 134, 134, 135, 135, 135, 136, 136, 136, 137, 137, 137, 138, 138, 139, 139, 140, 140, 140, 141, 141, 142, 142, 142, 143, 143, 143, 144, 144, 144, 145, 145, 145, 146, 146, 146, 147, 147, 147, 148, 148, 148, 149, 149, 150, 150, 151, 151, 151, 152, 152, 152, 153, 153, 153, 154, 154, 155, 155, 155, 156, 156, 157, 157, 157, 158, 158, 158, 159, 159, 160, 160, 160, 161, 162, 163, 163, 164, 164, 164, 165, 165, 165, 166, 166, 166, 167, 167, 168, 168, 169, 169, 170, 170, 171, 171, 171, 172, 172, 172, 173, 173, 173, 174, 174, 174, 175, 175, 175, 176, 176, 176, 177, 177, 178, 178, 179, 180, 181, 181, 181, 182, 182, 182, 183, 183, 183, 184, 184, 184, 185, 185, 185, 186, 186, 186, 187, 187, 187, 188, 188, 188, 189, 189, 190, 190, 191, 191, 192, 193, 193, 194, 194, 194, 195, 195, 195, 196, 196, 196, 197, 197, 197, 198, 198, 198, 199, 199, 199, 200, 200, 200, 201, 201, 201, 202, 202, 203, 203, 204, 204, 204, 205, 205, 205, 206, 206, 206, 207, 207, 208, 208, 208, 209, 209, 210, 211, 211, 212, 212, 213, 213, 214, 214, 214, 215, 215, 216, 216, 217, 217, 218, 218, 219, 219, 220, 221, 221, 222, 223, 223, 223, 224, 224, 224, 225, 225, 225, 226, 226, 227, 228, 228, 229, 229, 230, 230, 230, 231, 231, 231, 232, 232, 232, 233, 233, 233, 234, 234, 234, 235, 235, 236, 236, 236, 237, 237, 238, 238, 239, 239, 240, 240, 241, 241, 242, 242, 242, 243, 243, 243, 244, 244, 245, 245, 246, 246, 247, 247, 248, 248, 249, 249, 250, 251, 251, 252, 252, 252, 253, 253, 253, 254, 255, 255, 256, 256, 256, 257, 257, 257, 258, 258, 259, 259, 260, 260, 260, 261, 261, 261, 262, 262, 262, 263, 263, 263, 264, 264, 264, 265, 265, 266, 266, 266, 267, 267, 268, 268, 269, 269, 270, 271, 271, 272, 272, 272, 273, 273, 273, 274, 274, 274, 275, 275, 275, 276, 276, 276, 277, 277, 277, 278, 278, 279, 279, 280, 280, 280, 281, 282, 282, 283, 283, 283, 284, 284, 285, 285, 285, 286, 286, 286, 287, 287, 287, 288, 288, 289, 290, 290, 291, 291, 291, 292, 292, 293, 293, 294, 294, 294, 295, 295, 295, 296, 296, 297, 298, 298, 299, 299, 300, 300, 301, 301, 301, 302, 302, 303, 303, 304, 304, 305, 305, 305, 306, 306, 306, 307, 307, 307, 308, 308, 309, 309, 310, 310, 310, 311, 311, 312, 312, 313, 313, 314, 314, 315, 315, 315, 316, 316, 316, 317, 317, 317, 318, 318, 318, 319, 320, 320, 321, 321, 321, 322, 322, 322, 323, 323, 324, 325, 325, 326, 326, 326, 327, 327, 327, 328, 328, 328, 329, 329, 330, 331, 332, 333, 333, 333, 334, 334, 334, 335, 335, 335, 336, 336, 337, 337, 338, 338, 339, 339, 340, 340, 340, 341, 341, 341, 342, 342, 342, 343, 343, 343, 344, 344, 345, 345, 345, 346, 346, 346, 347, 347, 347, 348, 348, 348, 349, 349, 350, 350, 351, 352, 352, 352, 353, 353, 353, 354, 354, 354, 355, 355, 356, 356, 356, 357, 357, 358, 358, 359, 359, 360, 361, 361, 362, 362, 363, 363, 363, 364, 364, 364, 365, 365, 365, 366, 366, 366, 367, 367, 367, 368, 368, 368, 369, 369, 370, 370, 370, 371, 371, 371, 372, 372, 372, 373, 373, 373, 374, 374, 374, 375, 375, 375, 376, 376, 376, 377, 377, 377, 378, 379, 380, 380, 380, 381, 382, 383, 383, 384, 384, 385, 386, 386, 386, 387, 387, 387, 388, 388, 388, 389, 389, 390, 390, 391, 391, 391, 392, 392, 393, 393, 394, 394, 395, 395, 395, 396, 396, 396, 397, 397, 397, 398, 398, 398, 399, 399, 399, 400, 400, 400, 401, 401, 401, 402, 402, 402, 403, 403, 403, 404, 404, 404, 405, 405, 405, 406, 406, 406, 407, 407, 407, 408, 408, 409, 409, 409, 410, 410, 410, 411, 411, 411, 412, 412, 412, 413, 413, 413, 414, 414, 415, 415, 416, 416, 416, 417, 417, 418, 418, 419, 419, 420, 420, 421, 422, 422, 423, 423, 424, 424, 424, 425, 425, 426, 426, 426, 427, 427, 428, 428, 428, 429, 429, 430, 430, 430, 431, 431, 432, 432, 433, 434, 434, 434, 435, 435, 436, 436, 436, 437, 437, 438, 438, 438, 439, 439, 440, 440, 440, 441, 441, 442, 442, 443, 444, 444, 444, 445, 445, 446, 446, 446, 447, 448];
Edge_End = [30, 3, 2, 4, 3, 5, 4, 6, 34, 5, 7, 6, 36, 9, 8, 10, 9, 11, 10, 12, 11, 13, 12, 14, 13, 15, 14, 16, 44, 15, 17, 16, 18, 46, 17, 19, 18, 20, 48, 19, 21, 20, 22, 21, 23, 22, 24, 52, 23, 25, 24, 26, 54, 25, 27, 26, 28, 56, 27, 29, 28, 58, 1, 31, 30, 32, 61, 31, 33, 32, 34, 63, 5, 33, 35, 34, 36, 65, 7, 35, 37, 36, 38, 67, 37, 39, 38, 40, 69, 39, 41, 40, 42, 71, 41, 43, 42, 44, 73, 15, 43, 45, 44, 46, 75, 17, 45, 47, 46, 48, 77, 19, 47, 49, 48, 50, 49, 51, 50, 52, 23, 51, 53, 52, 54, 25, 53, 55, 54, 56, 27, 55, 57, 56, 58, 87, 29, 57, 59, 58, 89, 61, 90, 31, 60, 62, 61, 63, 92, 33, 62, 64, 63, 65, 94, 35, 64, 66, 65, 67, 96, 37, 66, 69, 98, 39, 68, 70, 69, 100, 41, 72, 71, 73, 102, 43, 72, 74, 73, 75, 45, 74, 77, 106, 47, 76, 78, 77, 79, 108, 78, 80, 79, 81, 80, 82, 81, 83, 112, 82, 84, 83, 85, 114, 84, 86, 85, 116, 57, 88, 87, 118, 59, 60, 91, 90, 121, 62, 93, 92, 123, 64, 95, 94, 96, 125, 66, 95, 97, 96, 98, 127, 68, 97, 99, 98, 100, 129, 70, 99, 101, 100, 102, 72, 101, 103, 102, 104, 133, 103, 105, 104, 106, 135, 76, 105, 107, 106, 108, 137, 78, 107, 109, 108, 110, 139, 109, 111, 110, 112, 82, 111, 114, 143, 84, 113, 115, 114, 116, 145, 86, 115, 117, 116, 147, 88, 119, 118, 149, 121, 150, 91, 120, 122, 121, 152, 93, 124, 123, 125, 95, 124, 126, 125, 127, 97, 126, 128, 127, 129, 158, 99, 128, 130, 129, 131, 160, 130, 132, 131, 133, 162, 103, 132, 134, 133, 135, 164, 105, 134, 136, 135, 137, 166, 107, 136, 138, 137, 168, 109, 140, 139, 141, 170, 140, 142, 141, 143, 172, 113, 142, 144, 143, 145, 174, 115, 144, 146, 145, 147, 176, 117, 146, 148, 147, 149, 178, 119, 148, 120, 151, 150, 152, 181, 122, 151, 153, 152, 154, 183, 153, 155, 154, 156, 185, 155, 157, 156, 158, 187, 128, 157, 159, 158, 160, 130, 159, 161, 160, 132, 164, 193, 134, 163, 165, 164, 166, 195, 136, 165, 167, 166, 197, 138, 169, 168, 199, 140, 171, 170, 172, 201, 142, 171, 173, 172, 174, 203, 144, 173, 175, 174, 176, 205, 146, 175, 177, 176, 178, 148, 177, 209, 181, 151, 180, 182, 181, 183, 212, 153, 182, 184, 183, 185, 214, 155, 184, 186, 185, 187, 216, 157, 186, 188, 187, 189, 218, 188, 190, 189, 191, 190, 192, 191, 163, 194, 193, 195, 224, 165, 194, 196, 195, 197, 226, 167, 196, 198, 197, 199, 228, 169, 198, 200, 199, 201, 230, 171, 200, 202, 201, 232, 173, 204, 203, 205, 234, 175, 204, 206, 205, 207, 236, 206, 208, 207, 209, 238, 179, 208, 211, 210, 212, 182, 211, 214, 243, 184, 213, 215, 214, 245, 186, 217, 216, 247, 188, 219, 218, 249, 221, 220, 251, 223, 222, 224, 253, 194, 223, 225, 224, 226, 255, 196, 225, 257, 198, 229, 228, 230, 200, 229, 231, 230, 232, 261, 202, 231, 233, 232, 234, 263, 204, 233, 235, 234, 236, 206, 235, 237, 236, 267, 208, 239, 238, 269, 241, 270, 240, 242, 241, 243, 272, 213, 242, 244, 243, 274, 215, 246, 245, 276, 217, 248, 247, 249, 219, 248, 280, 221, 252, 251, 253, 282, 223, 252, 254, 253, 225, 256, 255, 257, 286, 227, 256, 258, 257, 259, 258, 260, 259, 261, 290, 231, 260, 262, 261, 263, 292, 233, 262, 264, 263, 265, 294, 264, 266, 265, 267, 296, 237, 266, 269, 298, 239, 268, 240, 272, 301, 242, 271, 273, 272, 274, 303, 244, 273, 275, 274, 276, 305, 246, 275, 277, 276, 278, 307, 277, 279, 278, 280, 250, 279, 281, 280, 252, 283, 282, 284, 313, 283, 285, 284, 286, 315, 256, 285, 287, 286, 288, 317, 287, 289, 288, 260, 291, 290, 292, 321, 262, 291, 294, 323, 264, 293, 295, 294, 296, 325, 266, 295, 327, 268, 299, 298, 329, 301, 330, 271, 300, 302, 301, 303, 273, 302, 305, 334, 275, 304, 306, 305, 307, 336, 277, 306, 308, 307, 309, 308, 310, 309, 311, 340, 310, 312, 311, 342, 283, 314, 313, 315, 285, 314, 316, 315, 317, 346, 287, 316, 318, 317, 319, 348, 318, 321, 350, 291, 320, 322, 321, 323, 352, 293, 322, 354, 295, 326, 325, 327, 356, 297, 326, 328, 327, 329, 358, 299, 328, 300, 361, 333, 332, 334, 363, 304, 333, 335, 334, 336, 365, 306, 335, 338, 367, 337, 339, 338, 340, 310, 339, 341, 340, 342, 371, 312, 341, 343, 342, 344, 373, 343, 345, 344, 346, 375, 316, 345, 347, 346, 348, 377, 318, 347, 349, 348, 350, 320, 349, 352, 322, 351, 353, 352, 354, 383, 324, 353, 355, 354, 356, 326, 355, 357, 356, 387, 328, 359, 358, 389, 390, 331, 362, 361, 363, 333, 362, 364, 363, 365, 394, 335, 364, 366, 365, 367, 396, 337, 366, 368, 367, 369, 398, 368, 370, 369, 371, 400, 341, 370, 372, 371, 373, 402, 343, 372, 374, 373, 375, 404, 345, 374, 376, 375, 377, 406, 347, 376, 378, 377, 380, 379, 381, 410, 380, 412, 353, 384, 383, 414, 386, 385, 387, 416, 357, 386, 388, 387, 389, 418, 359, 388, 360, 391, 390, 392, 420, 391, 393, 392, 422, 364, 395, 394, 396, 424, 366, 395, 397, 396, 398, 426, 368, 397, 399, 398, 400, 428, 370, 399, 401, 400, 402, 430, 372, 401, 403, 402, 404, 432, 374, 403, 405, 404, 406, 434, 376, 405, 407, 406, 408, 436, 407, 409, 408, 410, 438, 380, 409, 411, 410, 412, 440, 382, 411, 413, 412, 414, 442, 384, 413, 416, 444, 386, 415, 417, 416, 446, 388, 419, 418, 448, 391, 421, 420, 393, 423, 422, 424, 395, 423, 425, 424, 426, 397, 425, 427, 426, 428, 399, 427, 429, 428, 430, 401, 429, 431, 430, 432, 403, 431, 434, 405, 433, 435, 434, 436, 407, 435, 437, 436, 438, 409, 437, 439, 438, 440, 411, 439, 441, 440, 442, 413, 441, 444, 415, 443, 445, 444, 446, 417, 445, 447, 446, 419];
L = [1, 1, 1, 1, 1, 1, 1, 1, 1, 1, 1, 1, 1, 1, 1, 1, 1, 1, 1, 1, 1, 1, 1, 1, 1, 1, 1, 1, 1, 1, 1, 1, 1, 1, 1, 1, 1, 1, 1, 1, 1, 1, 1, 1, 1, 1, 1, 1, 1, 1, 1, 1, 1, 1, 1, 1, 1, 1, 1, 1, 1, 1, 1, 1, 1, 1, 1, 1, 1, 1, 1, 1, 1, 1, 1, 1, 1, 1, 1, 1, 1, 1, 1, 1, 1, 1, 1, 1, 1, 1, 1, 1, 1, 1, 1, 1, 1, 1, 1, 1, 1, 1, 1, 1, 1, 1, 1, 1, 1, 1, 1, 1, 1, 1, 1, 1, 1, 1, 1, 1, 1, 1, 1, 1, 1, 1, 1, 1, 1, 1, 1, 1, 1, 1, 1, 1, 1, 1, 1, 1, 1, 1, 1, 1, 1, 1, 1, 1, 1, 1, 1, 1, 1, 1, 1, 1, 1, 1, 1, 1, 1, 1, 1, 1, 1, 1, 1, 1, 1, 1, 1, 1, 1, 1, 1, 1, 1, 1, 1, 1, 1, 1, 1, 1, 1, 1, 1, 1, 1, 1, 1, 1, 1, 1, 1, 1, 1, 1, 1, 1, 1, 1, 1, 1, 1, 1, 1, 1, 1, 1, 1, 1, 1, 1, 1, 1, 1, 1, 1, 1, 1, 1, 1, 1, 1, 1, 1, 1, 1, 1, 1, 1, 1, 1, 1, 1, 1, 1, 1, 1, 1, 1, 1, 1, 1, 1, 1, 1, 1, 1, 1, 1, 1, 1, 1, 1, 1, 1, 1, 1, 1, 1, 1, 1, 1, 1, 1, 1, 1, 1, 1, 1, 1, 1, 1, 1, 1, 1, 1, 1, 1, 1, 1, 1, 1, 1, 1, 1, 1, 1, 1, 1, 1, 1, 1, 1, 1, 1, 1, 1, 1, 1, 1, 1, 1, 1, 1, 1, 1, 1, 1, 1, 1, 1, 1, 1, 1, 1, 1, 1, 1, 1, 1, 1, 1, 1, 1, 1, 1, 1, 1, 1, 1, 1, 1, 1, 1, 1, 1, 1, 1, 1, 1, 1, 1, 1, 1, 1, 1, 1, 1, 1, 1, 1, 1, 1, 1, 1, 1, 1, 1, 1, 1, 1, 1, 1, 1, 1, 1, 1, 1, 1, 1, 1, 1, 1, 1, 1, 1, 1, 1, 1, 1, 1, 1, 1, 1, 1, 1, 1, 1, 1, 1, 1, 1, 1, 1, 1, 1, 1, 1, 1, 1, 1, 1, 1, 1, 1, 1, 1, 1, 1, 1, 1, 1, 1, 1, 1, 1, 1, 1, 1, 1, 1, 1, 1, 1, 1, 1, 1, 1, 1, 1, 1, 1, 1, 1, 1, 1, 1, 1, 1, 1, 1, 1, 1, 1, 1, 1, 1, 1, 1, 1, 1, 1, 1, 1, 1, 1, 1, 1, 1, 1, 1, 1, 1, 1, 1, 1, 1, 1, 1, 1, 1, 1, 1, 1, 1, 1, 1, 1, 1, 1, 1, 1, 1, 1, 1, 1, 1, 1, 1, 1, 1, 1, 1, 1, 1, 1, 1, 1, 1, 1, 1, 1, 1, 1, 1, 1, 1, 1, 1, 1, 1, 1, 1, 1, 1, 1, 1, 1, 1, 1, 1, 1, 1, 1, 1, 1, 1, 1, 1, 1, 1, 1, 1, 1, 1, 1, 1, 1, 1, 1, 1, 1, 1, 1, 1, 1, 1, 1, 1, 1, 1, 1, 1, 1, 1, 1, 1, 1, 1, 1, 1, 1, 1, 1, 1, 1, 1, 1, 1, 1, 1, 1, 1, 1, 1, 1, 1, 1, 1, 1, 1, 1, 1, 1, 1, 1, 1, 1, 1, 1, 1, 1, 1, 1, 1, 1, 1, 1, 1, 1, 1, 1, 1, 1, 1, 1, 1, 1, 1, 1, 1, 1, 1, 1, 1, 1, 1, 1, 1, 1, 1, 1, 1, 1, 1, 1, 1, 1, 1, 1, 1, 1, 1, 1, 1, 1, 1, 1, 1, 1, 1, 1, 1, 1, 1, 1, 1, 1, 1, 1, 1, 1, 1, 1, 1, 1, 1, 1, 1, 1, 1, 1, 1, 1, 1, 1, 1, 1, 1, 1, 1, 1, 1, 1, 1, 1, 1, 1, 1, 1, 1, 1, 1, 1, 1, 1, 1, 1, 1, 1, 1, 1, 1, 1, 1, 1, 1, 1, 1, 1, 1, 1, 1, 1, 1, 1, 1, 1, 1, 1, 1, 1, 1, 1, 1, 1, 1, 1, 1, 1, 1, 1, 1, 1, 1, 1, 1, 1, 1, 1, 1, 1, 1, 1, 1, 1, 1, 1, 1, 1, 1, 1, 1, 1, 1, 1, 1, 1, 1, 1, 1, 1, 1, 1, 1, 1, 1, 1, 1, 1, 1, 1, 1, 1, 1, 1, 1, 1, 1, 1, 1, 1, 1, 1, 1, 1, 1, 1, 1, 1, 1, 1, 1, 1, 1, 1, 1, 1, 1, 1, 1, 1, 1, 1, 1, 1, 1, 1, 1, 1, 1, 1, 1, 1, 1, 1, 1, 1, 1, 1, 1, 1, 1, 1, 1, 1, 1, 1, 1, 1, 1, 1, 1, 1, 1, 1, 1, 1, 1, 1, 1, 1, 1, 1, 1, 1, 1, 1, 1, 1, 1, 1, 1, 1, 1, 1, 1, 1, 1, 1, 1, 1, 1, 1, 1, 1, 1, 1, 1, 1, 1, 1, 1, 1, 1, 1, 1, 1, 1, 1, 1, 1, 1, 1, 1, 1, 1, 1, 1, 1, 1, 1, 1, 1, 1, 1, 1, 1, 1, 1, 1, 1, 1, 1, 1, 1, 1, 1, 1, 1, 1, 1, 1, 1, 1, 1, 1, 1, 1, 1, 1, 1, 1, 1, 1, 1, 1, 1, 1, 1, 1, 1, 1, 1, 1, 1, 1, 1, 1, 1, 1, 1, 1, 1, 1, 1, 1, 1, 1, 1, 1, 1, 1, 1, 1, 1, 1, 1, 1, 1, 1, 1, 1, 1, 1, 1, 1, 1, 1, 1, 1, 1, 1, 1, 1, 1, 1, 1, 1, 1, 1, 1, 1, 1, 1, 1, 1, 1, 1, 1, 1, 1, 1, 1, 1, 1, 1, 1, 1, 1, 1, 1, 1, 1, 1, 1, 1, 1, 1, 1, 1, 1, 1, 1, 1, 1, 1, 1, 1, 1, 1, 1, 1, 1, 1, 1, 1, 1, 1, 1, 1, 1, 1, 1, 1, 1, 1, 1, 1, 1, 1, 1, 1, 1, 1, 1, 1, 1, 1, 1, 1, 1, 1, 1, 1, 1, 1, 1, 1, 1, 1, 1, 1, 1, 1, 1, 1, 1, 1, 1, 1, 1, 1, 1, 1, 1, 1, 1, 1, 1, 1, 1, 1, 1, 1, 1, 1, 1, 1, 1, 1];
T = [1, 1, 1, 1, 1, 1, 1, 1, 1, 1, 1, 1, 1, 1, 1, 1, 1, 1, 1, 1, 1, 1, 1, 1, 1, 1, 1, 1, 1, 1, 1, 1, 1, 1, 1, 1, 1, 1, 1, 1, 1, 1, 1, 1, 1, 1, 1, 1, 1, 1, 1, 1, 1, 1, 1, 1, 1, 1, 1, 1, 1, 1, 1, 1, 1, 1, 1, 1, 1, 1, 1, 1, 1, 1, 1, 1, 1, 1, 1, 1, 1, 1, 1, 1, 1, 1, 1, 1, 1, 1, 1, 1, 1, 1, 1, 1, 1, 1, 1, 1, 1, 1, 1, 1, 1, 1, 1, 1, 1, 1, 1, 1, 1, 1, 1, 1, 1, 1, 1, 1, 1, 1, 1, 1, 1, 1, 1, 1, 1, 1, 1, 1, 1, 1, 1, 1, 1, 1, 1, 1, 1, 1, 1, 1, 1, 1, 1, 1, 1, 1, 1, 1, 1, 1, 1, 1, 1, 1, 1, 1, 1, 1, 1, 1, 1, 1, 1, 1, 1, 1, 1, 1, 1, 1, 1, 1, 1, 1, 1, 1, 1, 1, 1, 1, 1, 1, 1, 1, 1, 1, 1, 1, 1, 1, 1, 1, 1, 1, 1, 1, 1, 1, 1, 1, 1, 1, 1, 1, 1, 1, 1, 1, 1, 1, 1, 1, 1, 1, 1, 1, 1, 1, 1, 1, 1, 1, 1, 1, 1, 1, 1, 1, 1, 1, 1, 1, 1, 1, 1, 1, 1, 1, 1, 1, 1, 1, 1, 1, 1, 1, 1, 1, 1, 1, 1, 1, 1, 1, 1, 1, 1, 1, 1, 1, 1, 1, 1, 1, 1, 1, 1, 1, 1, 1, 1, 1, 1, 1, 1, 1, 1, 1, 1, 1, 1, 1, 1, 1, 1, 1, 1, 1, 1, 1, 1, 1, 1, 1, 1, 1, 1, 1, 1, 1, 1, 1, 1, 1, 1, 1, 1, 1, 1, 1, 1, 1, 1, 1, 1, 1, 1, 1, 1, 1, 1, 1, 1, 1, 1, 1, 1, 1, 1, 1, 1, 1, 1, 1, 1, 1, 1, 1, 1, 1, 1, 1, 1, 1, 1, 1, 1, 1, 1, 1, 1, 1, 1, 1, 1, 1, 1, 1, 1, 1, 1, 1, 1, 1, 1, 1, 1, 1, 1, 1, 1, 1, 1, 1, 1, 1, 1, 1, 1, 1, 1, 1, 1, 1, 1, 1, 1, 1, 1, 1, 1, 1, 1, 1, 1, 1, 1, 1, 1, 1, 1, 1, 1, 1, 1, 1, 1, 1, 1, 1, 1, 1, 1, 1, 1, 1, 1, 1, 1, 1, 1, 1, 1, 1, 1, 1, 1, 1, 1, 1, 1, 1, 1, 1, 1, 1, 1, 1, 1, 1, 1, 1, 1, 1, 1, 1, 1, 1, 1, 1, 1, 1, 1, 1, 1, 1, 1, 1, 1, 1, 1, 1, 1, 1, 1, 1, 1, 1, 1, 1, 1, 1, 1, 1, 1, 1, 1, 1, 1, 1, 1, 1, 1, 1, 1, 1, 1, 1, 1, 1, 1, 1, 1, 1, 1, 1, 1, 1, 1, 1, 1, 1, 1, 1, 1, 1, 1, 1, 1, 1, 1, 1, 1, 1, 1, 1, 1, 1, 1, 1, 1, 1, 1, 1, 1, 1, 1, 1, 1, 1, 1, 1, 1, 1, 1, 1, 1, 1, 1, 1, 1, 1, 1, 1, 1, 1, 1, 1, 1, 1, 1, 1, 1, 1, 1, 1, 1, 1, 1, 1, 1, 1, 1, 1, 1, 1, 1, 1, 1, 1, 1, 1, 1, 1, 1, 1, 1, 1, 1, 1, 1, 1, 1, 1, 1, 1, 1, 1, 1, 1, 1, 1, 1, 1, 1, 1, 1, 1, 1, 1, 1, 1, 1, 1, 1, 1, 1, 1, 1, 1, 1, 1, 1, 1, 1, 1, 1, 1, 1, 1, 1, 1, 1, 1, 1, 1, 1, 1, 1, 1, 1, 1, 1, 1, 1, 1, 1, 1, 1, 1, 1, 1, 1, 1, 1, 1, 1, 1, 1, 1, 1, 1, 1, 1, 1, 1, 1, 1, 1, 1, 1, 1, 1, 1, 1, 1, 1, 1, 1, 1, 1, 1, 1, 1, 1, 1, 1, 1, 1, 1, 1, 1, 1, 1, 1, 1, 1, 1, 1, 1, 1, 1, 1, 1, 1, 1, 1, 1, 1, 1, 1, 1, 1, 1, 1, 1, 1, 1, 1, 1, 1, 1, 1, 1, 1, 1, 1, 1, 1, 1, 1, 1, 1, 1, 1, 1, 1, 1, 1, 1, 1, 1, 1, 1, 1, 1, 1, 1, 1, 1, 1, 1, 1, 1, 1, 1, 1, 1, 1, 1, 1, 1, 1, 1, 1, 1, 1, 1, 1, 1, 1, 1, 1, 1, 1, 1, 1, 1, 1, 1, 1, 1, 1, 1, 1, 1, 1, 1, 1, 1, 1, 1, 1, 1, 1, 1, 1, 1, 1, 1, 1, 1, 1, 1, 1, 1, 1, 1, 1, 1, 1, 1, 1, 1, 1, 1, 1, 1, 1, 1, 1, 1, 1, 1, 1, 1, 1, 1, 1, 1, 1, 1, 1, 1, 1, 1, 1, 1, 1, 1, 1, 1, 1, 1, 1, 1, 1, 1, 1, 1, 1, 1, 1, 1, 1, 1, 1, 1, 1, 1, 1, 1, 1, 1, 1, 1, 1, 1, 1, 1, 1, 1, 1, 1, 1, 1, 1, 1, 1, 1, 1, 1, 1, 1, 1, 1, 1, 1, 1, 1, 1, 1, 1, 1, 1, 1, 1, 1, 1, 1, 1, 1, 1, 1, 1, 1, 1, 1, 1, 1, 1, 1, 1, 1, 1, 1, 1, 1, 1, 1, 1, 1, 1, 1, 1, 1, 1, 1, 1, 1, 1, 1, 1, 1, 1, 1, 1, 1, 1, 1, 1, 1, 1, 1, 1, 1, 1, 1, 1, 1, 1, 1, 1, 1, 1, 1, 1, 1, 1, 1, 1, 1, 1, 1, 1, 1, 1, 1, 1, 1, 1, 1, 1, 1, 1, 1, 1, 1, 1, 1, 1, 1, 1, 1, 1, 1, 1, 1, 1, 1, 1, 1, 1, 1, 1, 1, 1, 1, 1, 1, 1, 1, 1, 1, 1, 1, 1, 1, 1, 1, 1, 1, 1, 1, 1, 1, 1, 1, 1, 1, 1, 1, 1, 1, 1, 1, 1, 1, 1, 1, 1, 1, 1, 1, 1, 1, 1, 1, 1, 1, 1, 1, 1, 1, 1, 1, 1, 1, 1, 1, 1, 1, 1, 1, 1, 1, 1, 1, 1, 1, 1, 1, 1, 1, 1, 1, 1, 1, 1, 1, 1, 1, 1, 1, 1, 1, 1, 1, 1, 1, 1, 1, 1, 1, 1, 1, 1, 1, 1, 1];
Lower_Bound = [0, 9, 8, 7, 6, 7, 8, 23, 22, 21, 20, 19, 18, 17, 16, 17, 18, 19, 20, 21, 22, 23, 24, 25, 26, 27, 28, 29, 30, 1, 2, 3, 4, 5, 6, 7, 8, 9, 10, 11, 12, 13, 14, 15, 16, 17, 18, 19, 20, 21, 22, 23, 24, 25, 26, 27, 28, 29, 30, 4, 3, 4, 5, 6, 7, 8, 9, 12, 11, 12, 13, 14, 15, 16, 17, 20, 19, 20, 21, 22, 23, 24, 25, 26, 27, 28, 29, 30, 31, 5, 6, 5, 6, 7, 8, 9, 10, 11, 12, 13, 14, 15, 16, 17, 18, 19, 20, 21, 22, 23, 24, 25, 28, 27, 28, 29, 30, 31, 32, 8, 7, 8, 7, 8, 9, 10, 11, 12, 13, 14, 15, 16, 17, 18, 19, 20, 21, 22, 23, 24, 25, 26, 27, 28, 29, 30, 31, 32, 33, 9, 10, 9, 10, 11, 12, 13, 14, 13, 14, 15, 16, 17, 20, 19, 20, 21, 22, 23, 24, 25, 26, 27, 28, 29, 30, 31, 32, 33, 36, 12, 11, 12, 11, 12, 13, 14, 15, 16, 17, 18, 19, 20, 21, 22, 21, 22, 23, 24, 25, 26, 27, 28, 29, 30, 31, 32, 33, 34, 35, 15, 14, 13, 14, 13, 14, 15, 16, 17, 18, 29, 28, 25, 24, 23, 24, 23, 28, 25, 26, 27, 28, 29, 30, 31, 32, 33, 34, 35, 36, 18, 17, 16, 15, 16, 15, 16, 17, 18, 19, 22, 27, 26, 25, 26, 25, 26, 27, 28, 29, 30, 29, 30, 31, 32, 33, 34, 35, 38, 37, 19, 18, 17, 18, 17, 18, 17, 18, 19, 20, 21, 22, 27, 28, 29, 28, 27, 28, 29, 30, 31, 32, 31, 34, 33, 34, 35, 38, 39, 40, 20, 19, 20, 19, 20, 19, 20, 19, 20, 21, 22, 23, 24, 29, 30, 29, 30, 29, 30, 31, 34, 33, 34, 35, 38, 35, 36, 37, 38, 39, 21, 26, 23, 22, 21, 22, 21, 26, 25, 24, 23, 24, 25, 26, 27, 28, 29, 30, 31, 32, 33, 36, 35, 36, 37, 38, 37, 38, 39, 40, 34, 25, 24, 23, 24, 23, 24, 25, 26, 27, 26, 25, 26, 27, 28, 29, 30, 31, 32, 37, 36, 37, 38, 37, 38, 41, 40, 39, 40, 41, 33, 32, 31, 30, 25, 26, 25, 26, 27, 28, 27, 28, 27, 28, 29, 30, 31, 32, 33, 34, 35, 36, 37, 38, 39, 42, 41, 42, 41, 42, 33, 34, 29, 28, 27, 28, 27, 28, 29, 30, 29, 30, 29, 32, 31, 32, 33, 34, 35, 36, 37, 38, 39, 44, 43, 44, 43, 44, 43];
Upper_Bound = [0, 9, 8, 7, 6, 7, 8, 23, 22, 21, 20, 19, 18, 17, 16, 17, 18, 19, 20, 21, 22, 23, 24, 25, 26, 27, 28, 29, 30, 1, 2, 3, 4, 5, 6, 7, 8, 9, 10, 11, 12, 13, 14, 15, 16, 17, 18, 19, 20, 21, 22, 23, 24, 25, 26, 27, 28, 29, 30, 4, 3, 4, 5, 6, 7, 8, 9, 12, 11, 12, 13, 14, 15, 16, 17, 20, 19, 20, 21, 22, 23, 24, 25, 26, 27, 28, 29, 30, 31, 5, 6, 5, 6, 7, 8, 9, 10, 11, 12, 13, 14, 15, 16, 17, 18, 19, 20, 21, 22, 23, 24, 25, 28, 27, 28, 29, 30, 31, 32, 8, 7, 8, 7, 8, 9, 10, 11, 12, 13, 14, 15, 16, 17, 18, 19, 20, 21, 22, 23, 24, 25, 26, 27, 28, 29, 30, 31, 32, 33, 9, 10, 9, 10, 11, 12, 13, 14, 13, 14, 15, 16, 17, 20, 19, 20, 21, 22, 23, 24, 25, 26, 27, 28, 29, 30, 31, 32, 33, 36, 12, 11, 12, 11, 12, 13, 14, 15, 16, 17, 18, 19, 20, 21, 22, 21, 22, 23, 24, 25, 26, 27, 28, 29, 30, 31, 32, 33, 34, 35, 15, 14, 13, 14, 13, 14, 15, 16, 17, 18, 29, 28, 25, 24, 23, 24, 23, 28, 25, 26, 27, 28, 29, 30, 31, 32, 33, 34, 35, 36, 18, 17, 16, 15, 16, 15, 16, 17, 18, 19, 22, 27, 26, 25, 26, 25, 26, 27, 28, 29, 30, 29, 30, 31, 32, 33, 34, 35, 38, 37, 19, 18, 17, 18, 17, 18, 17, 18, 19, 20, 21, 22, 27, 28, 29, 28, 27, 28, 29, 30, 31, 32, 31, 34, 33, 34, 35, 38, 39, 40, 20, 19, 20, 19, 20, 19, 20, 19, 20, 21, 22, 23, 24, 29, 30, 29, 30, 29, 30, 31, 34, 33, 34, 35, 38, 35, 36, 37, 38, 39, 21, 26, 23, 22, 21, 22, 21, 26, 25, 24, 23, 24, 25, 26, 27, 28, 29, 30, 31, 32, 33, 36, 35, 36, 37, 38, 37, 38, 39, 40, 34, 25, 24, 23, 24, 23, 24, 25, 26, 27, 26, 25, 26, 27, 28, 29, 30, 31, 32, 37, 36, 37, 38, 37, 38, 41, 40, 39, 40, 41, 33, 32, 31, 30, 25, 26, 25, 26, 27, 28, 27, 28, 27, 28, 29, 30, 31, 32, 33, 34, 35, 36, 37, 38, 39, 42, 41, 42, 41, 42, 33, 34, 29, 28, 27, 28, 27, 28, 29, 30, 29, 30, 29, 32, 31, 32, 33, 34, 35, 36, 37, 38, 39, 44, 43, 44, 43, 44, 43];
Start = 1;
End = 448;
Time = 43;
