graph_generation/data/sat/rcsp/hexagonal_lattice_N_14_weights-one_windows-tight.txt
N = 448;
M = 542;
Edge_Start = [1, 2, 3, 4, 5, 5, 6, 7, 8, 9, 10, 11, 12, 13, 14, 15, 15, 16, 17, 17, 18, 19, 19, 20, 21, 22, 23, 23, 24, 25, 25, 26, 27, 27, 28, 29, 30, 31, 31, 32, 33, 33, 34, 35, 35, 36, 37, 37, 38, 39, 39, 40, 41, 41, 42, 43, 43, 44, 45, 45, 46, 47, 47, 48, 49, 50, 51, 52, 53, 54, 55, 56, 57, 57, 58, 59, 60, 60, 61, 62, 62, 63, 64, 64, 65, 66, 66, 68, 68, 69, 70, 71, 72, 72, 73, 74, 76, 76, 77, 78, 78, 79, 80, 81, 82, 82, 83, 84, 84, 85, 86, 87, 88, 90, 91, 92, 93, 94, 95, 95, 96, 97, 97, 98, 99, 99, 100, 101, 102, 103, 103, 104, 105, 105, 106, 107, 107, 108, 109, 109, 110, 111, 113, 113, 114, 115, 115, 116, 117, 118, 119, 120, 120, 121, 122, 123, 124, 125, 126, 127, 128, 128, 129, 130, 130, 131, 132, 132, 133, 134, 134, 135, 136, 136, 137, 138, 139, 140, 140, 141, 142, 142, 143, 144, 144, 145, 146, 146, 147, 148, 148, 150, 151, 151, 152, 153, 153, 154, 155, 155, 156, 157, 157, 158, 159, 160, 163, 163, 164, 165, 165, 166, 167, 168, 169, 170, 171, 171, 172, 173, 173, 174, 175, 175, 176, 177, 179, 180, 181, 182, 182, 183, 184, 184, 185, 186, 186, 187, 188, 188, 189, 190, 191, 193, 194, 194, 195, 196, 196, 197, 198, 198, 199, 200, 200, 201, 202, 203, 204, 204, 205, 206, 206, 207, 208, 208, 210, 211, 213, 213, 214, 215, 216, 217, 218, 219, 220, 221, 222, 223, 223, 224, 225, 225, 227, 228, 229, 230, 231, 231, 232, 233, 233, 234, 235, 236, 237, 238, 239, 240, 240, 241, 242, 242, 243, 244, 245, 246, 247, 248, 250, 251, 252, 252, 253, 255, 256, 256, 257, 258, 259, 260, 260, 261, 262, 262, 263, 264, 264, 265, 266, 266, 268, 268, 271, 271, 272, 273, 273, 274, 275, 275, 276, 277, 277, 278, 279, 280, 282, 283, 283, 284, 285, 285, 286, 287, 287, 288, 290, 291, 291, 293, 293, 294, 295, 295, 297, 298, 299, 300, 300, 301, 302, 304, 304, 305, 306, 306, 307, 308, 309, 310, 310, 311, 312, 313, 314, 315, 316, 316, 317, 318, 318, 320, 320, 321, 322, 322, 324, 325, 326, 326, 327, 328, 328, 331, 332, 333, 333, 334, 335, 335, 337, 337, 338, 339, 340, 341, 341, 342, 343, 343, 344, 345, 345, 346, 347, 347, 348, 349, 351, 352, 353, 353, 354, 355, 356, 357, 358, 359, 360, 361, 362, 363, 364, 364, 365, 366, 366, 367, 368, 368, 369, 370, 370, 371, 372, 372, 373, 374, 374, 375, 376, 376, 377, 379, 380, 380, 382, 383, 384, 385, 386, 386, 387, 388, 388, 390, 391, 391, 392, 393, 394, 395, 395, 396, 397, 397, 398, 399, 399, 400, 401, 401, 402, 403, 403, 404, 405, 405, 406, 407, 407, 408, 409, 409, 410, 411, 411, 412, 413, 413, 415, 415, 416, 417, 418, 419, 420, 422, 423, 424, 425, 426, 427, 428, 429, 430, 431, 433, 434, 435, 436, 437, 438, 439, 440, 441, 443, 444, 445, 446];
Edge_End = [30, 3, 4, 5, 6, 34, 7, 36, 9, 10, 11, 12, 13, 14, 15, 16, 44, 17, 18, 46, 19, 20, 48, 21, 22, 23, 24, 52, 25, 26, 54, 27, 28, 56, 29, 58, 31, 32, 61, 33, 34, 63, 35, 36, 65, 37, 38, 67, 39, 40, 69, 41, 42, 71, 43, 44, 73, 45, 46, 75, 47, 48, 77, 49, 50, 51, 52, 53, 54, 55, 56, 57, 58, 87, 59, 89, 61, 90, 62, 63, 92, 64, 65, 94, 66, 67, 96, 69, 98, 70, 100, 72, 73, 102, 74, 75, 77, 106, 78, 79, 108, 80, 81, 82, 83, 112, 84, 85, 114, 86, 116, 88, 118, 91, 121, 93, 123, 95, 96, 125, 97, 98, 127, 99, 100, 129, 101, 102, 103, 104, 133, 105, 106, 135, 107, 108, 137, 109, 110, 139, 111, 112, 114, 143, 115, 116, 145, 117, 147, 119, 149, 121, 150, 122, 152, 124, 125, 126, 127, 128, 129, 158, 130, 131, 160, 132, 133, 162, 134, 135, 164, 136, 137, 166, 138, 168, 140, 141, 170, 142, 143, 172, 144, 145, 174, 146, 147, 176, 148, 149, 178, 151, 152, 181, 153, 154, 183, 155, 156, 185, 157, 158, 187, 159, 160, 161, 164, 193, 165, 166, 195, 167, 197, 169, 199, 171, 172, 201, 173, 174, 203, 175, 176, 205, 177, 178, 209, 181, 182, 183, 212, 184, 185, 214, 186, 187, 216, 188, 189, 218, 190, 191, 192, 194, 195, 224, 196, 197, 226, 198, 199, 228, 200, 201, 230, 202, 232, 204, 205, 234, 206, 207, 236, 208, 209, 238, 211, 212, 214, 243, 215, 245, 217, 247, 219, 249, 221, 251, 223, 224, 253, 225, 226, 255, 257, 229, 230, 231, 232, 261, 233, 234, 263, 235, 236, 237, 267, 239, 269, 241, 270, 242, 243, 272, 244, 274, 246, 276, 248, 249, 280, 252, 253, 282, 254, 256, 257, 286, 258, 259, 260, 261, 290, 262, 263, 292, 264, 265, 294, 266, 267, 296, 269, 298, 272, 301, 273, 274, 303, 275, 276, 305, 277, 278, 307, 279, 280, 281, 283, 284, 313, 285, 286, 315, 287, 288, 317, 289, 291, 292, 321, 294, 323, 295, 296, 325, 327, 299, 329, 301, 330, 302, 303, 305, 334, 306, 307, 336, 308, 309, 310, 311, 340, 312, 342, 314, 315, 316, 317, 346, 318, 319, 348, 321, 350, 322, 323, 352, 354, 326, 327, 356, 328, 329, 358, 361, 333, 334, 363, 335, 336, 365, 338, 367, 339, 340, 341, 342, 371, 343, 344, 373, 345, 346, 375, 347, 348, 377, 349, 350, 352, 353, 354, 383, 355, 356, 357, 387, 359, 389, 390, 362, 363, 364, 365, 394, 366, 367, 396, 368, 369, 398, 370, 371, 400, 372, 373, 402, 374, 375, 404, 376, 377, 406, 378, 380, 381, 410, 412, 384, 414, 386, 387, 416, 388, 389, 418, 391, 392, 420, 393, 422, 395, 396, 424, 397, 398, 426, 399, 400, 428, 401, 402, 430, 403, 404, 432, 405, 406, 434, 407, 408, 436, 409, 410, 438, 411, 412, 440, 413, 414, 442, 416, 444, 417, 446, 419, 448, 421, 423, 424, 425, 426, 427, 428, 429, 430, 431, 432, 434, 435, 436, 437, 438, 439, 440, 441, 442, 444, 445, 446, 447];
L = [1, 1, 1, 1, 1, 1, 1, 1, 1, 1, 1, 1, 1, 1, 1, 1, 1, 1, 1, 1, 1, 1, 1, 1, 1, 1, 1, 1, 1, 1, 1, 1, 1, 1, 1, 1, 1, 1, 1, 1, 1, 1, 1, 1, 1, 1, 1, 1, 1, 1, 1, 1, 1, 1, 1, 1, 1, 1, 1, 1, 1, 1, 1, 1, 1, 1, 1, 1, 1, 1, 1, 1, 1, 1, 1, 1, 1, 1, 1, 1, 1, 1, 1, 1, 1, 1, 1, 1, 1, 1, 1, 1, 1, 1, 1, 1, 1, 1, 1, 1, 1, 1, 1, 1, 1, 1, 1, 1, 1, 1, 1, 1, 1, 1, 1, 1, 1, 1, 1, 1, 1, 1, 1, 1, 1, 1, 1, 1, 1, 1, 1, 1, 1, 1, 1, 1, 1, 1, 1, 1, 1, 1, 1, 1, 1, 1, 1, 1, 1, 1, 1, 1, 1, 1, 1, 1, 1, 1, 1, 1, 1, 1, 1, 1, 1, 1, 1, 1, 1, 1, 1, 1, 1, 1, 1, 1, 1, 1, 1, 1, 1, 1, 1, 1, 1, 1, 1, 1, 1, 1, 1, 1, 1, 1, 1, 1, 1, 1, 1, 1, 1, 1, 1, 1, 1, 1, 1, 1, 1, 1, 1, 1, 1, 1, 1, 1, 1, 1, 1, 1, 1, 1, 1, 1, 1, 1, 1, 1, 1, 1, 1, 1, 1, 1, 1, 1, 1, 1, 1, 1, 1, 1, 1, 1, 1, 1, 1, 1, 1, 1, 1, 1, 1, 1, 1, 1, 1, 1, 1, 1, 1, 1, 1, 1, 1, 1, 1, 1, 1, 1, 1, 1, 1, 1, 1, 1, 1, 1, 1, 1, 1, 1, 1, 1, 1, 1, 1, 1, 1, 1, 1, 1, 1, 1, 1, 1, 1, 1, 1, 1, 1, 1, 1, 1, 1, 1, 1, 1, 1, 1, 1, 1, 1, 1, 1, 1, 1, 1, 1, 1, 1, 1, 1, 1, 1, 1, 1, 1, 1, 1, 1, 1, 1, 1, 1, 1, 1, 1, 1, 1, 1, 1, 1, 1, 1, 1, 1, 1, 1, 1, 1, 1, 1, 1, 1, 1, 1, 1, 1, 1, 1, 1, 1, 1, 1, 1, 1, 1, 1, 1, 1, 1, 1, 1, 1, 1, 1, 1, 1, 1, 1, 1, 1, 1, 1, 1, 1, 1, 1, 1, 1, 1, 1, 1, 1, 1, 1, 1, 1, 1, 1, 1, 1, 1, 1, 1, 1, 1, 1, 1, 1, 1, 1, 1, 1, 1, 1, 1, 1, 1, 1, 1, 1, 1, 1, 1, 1, 1, 1, 1, 1, 1, 1, 1, 1, 1, 1, 1, 1, 1, 1, 1, 1, 1, 1, 1, 1, 1, 1, 1, 1, 1, 1, 1, 1, 1, 1, 1, 1, 1, 1, 1, 1, 1, 1, 1, 1, 1, 1, 1, 1, 1, 1, 1, 1, 1, 1, 1, 1, 1, 1, 1, 1, 1, 1, 1, 1, 1, 1, 1, 1, 1, 1, 1, 1, 1, 1, 1, 1, 1, 1, 1, 1, 1, 1, 1, 1, 1, 1, 1, 1, 1, 1, 1, 1, 1, 1, 1, 1, 1, 1, 1, 1, 1, 1, 1, 1, 1, 1, 1, 1, 1, 1, 1, 1, 1, 1, 1, 1, 1, 1, 1];
T = [1, 1, 1, 1, 1, 1, 1, 1, 1, 1, 1, 1, 1, 1, 1, 1, 1, 1, 1, 1, 1, 1, 1, 1, 1, 1, 1, 1, 1, 1, 1, 1, 1, 1, 1, 1, 1, 1, 1, 1, 1, 1, 1, 1, 1, 1, 1, 1, 1, 1, 1, 1, 1, 1, 1, 1, 1, 1, 1, 1, 1, 1, 1, 1, 1, 1, 1, 1, 1, 1, 1, 1, 1, 1, 1, 1, 1, 1, 1, 1, 1, 1, 1, 1, 1, 1, 1, 1, 1, 1, 1, 1, 1, 1, 1, 1, 1, 1, 1, 1, 1, 1, 1, 1, 1, 1, 1, 1, 1, 1, 1, 1, 1, 1, 1, 1, 1, 1, 1, 1, 1, 1, 1, 1, 1, 1, 1, 1, 1, 1, 1, 1, 1, 1, 1, 1, 1, 1, 1, 1, 1, 1, 1, 1, 1, 1, 1, 1, 1, 1, 1, 1, 1, 1, 1, 1, 1, 1, 1, 1, 1, 1, 1, 1, 1, 1, 1, 1, 1, 1, 1, 1, 1, 1, 1, 1, 1, 1, 1, 1, 1, 1, 1, 1, 1, 1, 1, 1, 1, 1, 1, 1, 1, 1, 1, 1, 1, 1, 1, 1, 1, 1, 1, 1, 1, 1, 1, 1, 1, 1, 1, 1, 1, 1, 1, 1, 1, 1, 1, 1, 1, 1, 1, 1, 1, 1, 1, 1, 1, 1, 1, 1, 1, 1, 1, 1, 1, 1, 1, 1, 1, 1, 1, 1, 1, 1, 1, 1, 1, 1, 1, 1, 1, 1, 1, 1, 1, 1, 1, 1, 1, 1, 1, 1, 1, 1, 1, 1, 1, 1, 1, 1, 1, 1, 1, 1, 1, 1, 1, 1, 1, 1, 1, 1, 1, 1, 1, 1, 1, 1, 1, 1, 1, 1, 1, 1, 1, 1, 1, 1, 1, 1, 1, 1, 1, 1, 1, 1, 1, 1, 1, 1, 1, 1, 1, 1, 1, 1, 1, 1, 1, 1, 1, 1, 1, 1, 1, 1, 1, 1, 1, 1, 1, 1, 1, 1, 1, 1, 1, 1, 1, 1, 1, 1, 1, 1, 1, 1, 1, 1, 1, 1, 1, 1, 1, 1, 1, 1, 1, 1, 1, 1, 1, 1, 1, 1, 1, 1, 1, 1, 1, 1, 1, 1, 1, 1, 1, 1, 1, 1, 1, 1, 1, 1, 1, 1, 1, 1, 1, 1, 1, 1, 1, 1, 1, 1, 1, 1, 1, 1, 1, 1, 1, 1, 1, 1, 1, 1, 1, 1, 1, 1, 1, 1, 1, 1, 1, 1, 1, 1, 1, 1, 1, 1, 1, 1, 1, 1, 1, 1, 1, 1, 1, 1, 1, 1, 1, 1, 1, 1, 1, 1, 1, 1, 1, 1, 1, 1, 1, 1, 1, 1, 1, 1, 1, 1, 1, 1, 1, 1, 1, 1, 1, 1, 1, 1, 1, 1, 1, 1, 1, 1, 1, 1, 1, 1, 1, 1, 1, 1, 1, 1, 1, 1, 1, 1, 1, 1, 1, 1, 1, 1, 1, 1, 1, 1, 1, 1, 1, 1, 1, 1, 1, 1, 1, 1, 1, 1, 1, 1, 1, 1, 1, 1, 1, 1, 1, 1, 1, 1, 1, 1, 1, 1, 1, 1, 1, 1, 1, 1, 1, 1, 1, 1, 1, 1, 1, 1, 1, 1, 1, 1];
Lower_Bound = [0, 9, 8, 7, 6, 7, 8, 23, 22, 21, 20, 19, 18, 17, 16, 17, 18, 19, 20, 21, 22, 23, 24, 25, 26, 27, 28, 29, 30, 1, 2, 3, 4, 5, 6, 7, 8, 9, 10, 11, 12, 13, 14, 15, 16, 17, 18, 19, 20, 21, 22, 23, 24, 25, 26, 27, 28, 29, 30, 4, 3, 4, 5, 6, 7, 8, 9, 12, 11, 12, 13, 14, 15, 16, 17, 20, 19, 20, 21, 22, 23, 24, 25, 26, 27, 28, 29, 30, 31, 5, 6, 5, 6, 7, 8, 9, 10, 11, 12, 13, 14, 15, 16, 17, 18, 19, 20, 21, 22, 23, 24, 25, 28, 27, 28, 29, 30, 31, 32, 8, 7, 8, 7, 8, 9, 10, 11, 12, 13, 14, 15, 16, 17, 18, 19, 20, 21, 22, 23, 24, 25, 26, 27, 28, 29, 30, 31, 32, 33, 9, 10, 9, 10, 11, 12, 13, 14, 13, 14, 15, 16, 17, 20, 19, 20, 21, 22, 23, 24, 25, 26, 27, 28, 29, 30, 31, 32, 33, 36, 12, 11, 12, 11, 12, 13, 14, 15, 16, 17, 18, 19, 20, 21, 22, 21, 22, 23, 24, 25, 26, 27, 28, 29, 30, 31, 32, 33, 34, 35, 15, 14, 13, 14, 13, 14, 15, 16, 17, 18, 29, 28, 25, 24, 23, 24, 23, 28, 25, 26, 27, 28, 29, 30, 31, 32, 33, 34, 35, 36, 18, 17, 16, 15, 16, 15, 16, 17, 18, 19, 22, 27, 26, 25, 26, 25, 26, 27, 28, 29, 30, 29, 30, 31, 32, 33, 34, 35, 38, 37, 19, 18, 17, 18, 17, 18, 17, 18, 19, 20, 21, 22, 27, 28, 29, 28, 27, 28, 29, 30, 31, 32, 31, 34, 33, 34, 35, 38, 39, 40, 20, 19, 20, 19, 20, 19, 20, 19, 20, 21, 22, 23, 24, 29, 30, 29, 30, 29, 30, 31, 34, 33, 34, 35, 38, 35, 36, 37, 38, 39, 21, 26, 23, 22, 21, 22, 21, 26, 25, 24, 23, 24, 25, 26, 27, 28, 29, 30, 31, 32, 33, 36, 35, 36, 37, 38, 37, 38, 39, 40, 34, 25, 24, 23, 24, 23, 24, 25, 26, 27, 26, 25, 26, 27, 28, 29, 30, 31, 32, 37, 36, 37, 38, 37, 38, 41, 40, 39, 40, 41, 33, 32, 31, 30, 25, 26, 25, 26, 27, 28, 27, 28, 27, 28, 29, 30, 31, 32, 33, 34, 35, 36, 37, 38, 39, 42, 41, 42, 41, 42, 33, 34, 29, 28, 27, 28, 27, 28, 29, 30, 29, 30, 29, 32, 31, 32, 33, 34, 35, 36, 37, 38, 39, 44, 43, 44, 43, 44, 43];
Upper_Bound = [0, 9, 8, 7, 6, 7, 8, 23, 22, 21, 20, 19, 18, 17, 16, 17, 18, 19, 20, 21, 22, 23, 24, 25, 26, 27, 28, 29, 30, 1, 2, 3, 4, 5, 6, 7, 8, 9, 10, 11, 12, 13, 14, 15, 16, 17, 18, 19, 20, 21, 22, 23, 24, 25, 26, 27, 28, 29, 30, 4, 3, 4, 5, 6, 7, 8, 9, 12, 11, 12, 13, 14, 15, 16, 17, 20, 19, 20, 21, 22, 23, 24, 25, 26, 27, 28, 29, 30, 31, 5, 6, 5, 6, 7, 8, 9, 10, 11, 12, 13, 14, 15, 16, 17, 18, 19, 20, 21, 22, 23, 24, 25, 28, 27, 28, 29, 30, 31, 32, 8, 7, 8, 7, 8, 9, 10, 11, 12, 13, 14, 15, 16, 17, 18, 19, 20, 21, 22, 23, 24, 25, 26, 27, 28, 29, 30, 31, 32, 33, 9, 10, 9, 10, 11, 12, 13, 14, 13, 14, 15, 16, 17, 20, 19, 20, 21, 22, 23, 24, 25, 26, 27, 28, 29, 30, 31, 32, 33, 36, 12, 11, 12, 11, 12, 13, 14, 15, 16, 17, 18, 19, 20, 21, 22, 21, 22, 23, 24, 25, 26, 27, 28, 29, 30, 31, 32, 33, 34, 35, 15, 14, 13, 14, 13, 14, 15, 16, 17, 18, 29, 28, 25, 24, 23, 24, 23, 28, 25, 26, 27, 28, 29, 30, 31, 32, 33, 34, 35, 36, 18, 17, 16, 15, 16, 15, 16, 17, 18, 19, 22, 27, 26, 25, 26, 25, 26, 27, 28, 29, 30, 29, 30, 31, 32, 33, 34, 35, 38, 37, 19, 18, 17, 18, 17, 18, 17, 18, 19, 20, 21, 22, 27, 28, 29, 28, 27, 28, 29, 30, 31, 32, 31, 34, 33, 34, 35, 38, 39, 40, 20, 19, 20, 19, 20, 19, 20, 19, 20, 21, 22, 23, 24, 29, 30, 29, 30, 29, 30, 31, 34, 33, 34, 35, 38, 35, 36, 37, 38, 39, 21, 26, 23, 22, 21, 22, 21, 26, 25, 24, 23, 24, 25, 26, 27, 28, 29, 30, 31, 32, 33, 36, 35, 36, 37, 38, 37, 38, 39, 40, 34, 25, 24, 23, 24, 23, 24, 25, 26, 27, 26, 25, 26, 27, 28, 29, 30, 31, 32, 37, 36, 37, 38, 37, 38, 41, 40, 39, 40, 41, 33, 32, 31, 30, 25, 26, 25, 26, 27, 28, 27, 28, 27, 28, 29, 30, 31, 32, 33, 34, 35, 36, 37, 38, 39, 42, 41, 42, 41, 42, 33, 34, 29, 28, 27, 28, 27, 28, 29, 30, 29, 30, 29, 32, 31, 32, 33, 34, 35, 36, 37, 38, 39, 44, 43, 44, 43, 44, 43];
Start = 1;
End = 448;
Time = 43;
